c --- [ banner ] -------------------------------------------------------------
c 
c CaDiCaL Radically Simplified CDCL SAT Solver
c Copyright (c) 2016-2021 A. Biere, M. Fleury, N. Froleyks
c 
c Version 1.5.2 9c38a080b32c28d805e8e6ca21849856b0cda605
c g++ (Ubuntu 7.5.0-3ubuntu1~18.04) 7.5.0 -Wall -Wextra -O3 -DNDEBUG
c Wed Feb 16 23:15:36 EST 2022 Linux fac-vanhoeve01 5.4.0-99-generic x86_64
c 
c --- [ limit ] --------------------------------------------------------------
c 
c setting time limit to 600 seconds real time (due to '-t 600')
c setting conflict limit to 1000000000 conflicts (due to '1000000000')
c 
c --- [ parsing input ] ------------------------------------------------------
c 
c reading DIMACS file from 'ddfwcnfs/wap03a.col_40.cnf'
c opening file to read 'ddfwcnfs/wap03a.col_40.cnf'
c found 'p cnf 189200 11282890' header
c parsed 11282890 clauses in 7.64 seconds process time
c closing file 'ddfwcnfs/wap03a.col_40.cnf'
c after reading 194993117 bytes 186.0 MB
c 
c --- [ options ] ------------------------------------------------------------
c 
c all options are set to their default value
c 
c --- [ solving ] ------------------------------------------------------------
c 
c time measured in process time since initialization
c 
c  seconds   reductions  redundant   irredundant
c          MB    restarts       trail         variables
c           level   conflicts       glue            remaining
c 
c *  7.64 971  0 0   0    0    0  0% 0 11281290 187600 99%
c {  7.70 973  0 0   0    0    0  0% 0 11281290 187600 99%
c - 10.32 973 40 1   0  300  187  5% 37 11281290 187600 99%
c } 10.61 973 40 1   0 1002  549  5% 37 11281290 187600 99%
c [ 10.61 973  0 1   0 1002  549  0% 0 11281290 187600 99%
c O 10.61 973 38 1   0 1003  550  2% 38 11281290 187600 99%
c - 17.47 1232 42 2   1 2133 1125  2% 39 11281290 187600 99%
c ] 17.60 1232 42 2   1 3002 1698  2% 39 11281290 187600 99%
c { 17.60 1232 40 2   1 3002 1698  5% 37 11281290 187600 99%
c F 17.61 1232 40 2   1 3004 1700  5% 37 11281290 187600 99%
c - 22.97 1233 41 3  13 4880 2166  5% 38 11281290 187600 99%
c # 35.50 1228 41 3  13 6005 2860  5% 38 11281290 187600 99%
c } 35.65 1228 46 3  13 7003 3395  5% 37 11281290 187600 99%
c [ 35.65 1228 42 3  13 7003 3395  2% 39 11281290 187600 99%
c - 40.94 1228 45 4  14 8542 2998  2% 39 11281290 187600 99%
c I 41.17 1228 49 4  15 10006 4111  2% 41 11281290 187600 99%
c s 46.81 1229 3661 4  17 11822 4865  9% 52 11281290 187600 99%
c e 72.39 1230 3661 4  17 11822 1924  9% 52 10733267 181195 96%
c s 75.02 1230 3661 4  17 11822 1864  9% 52 10733267 181195 96%
c ^ 78.33 1230 3661 4  17 11822 1864  9% 52 10733267 181195 96%
c 
c  seconds      reductions   redundant    irredundant
c          MB       restarts        trail          variables
c             level     conflicts       glue             remaining
c 
c - 84.37 1152 3451 5  17 13121 2490 11% 52 10733267 181195 96%
c ] 97.23 1233 6361 5  18 15003 3940 18% 62 10733267 181195 96%
c { 97.23 1233 46 5  18 15003 3940  5% 37 10733267 181195 96%
c B 97.31 1233 58 5  18 15010 3947  5% 37 10733267 181195 96%
c - 102.91 1234 70 6  41 18579 4342  5% 38 10733267 181195 96%
c W 109.06 1234 63 6  55 21012 5714  5% 38 10733267 181195 96%
c - 114.85 1234 57 7  64 24944 4873  5% 38 10733267 181195 96%
c F 115.32 1234 54 7  64 28013 6751  5% 38 10733267 181195 96%
c } 128.14 1234 52 7  65 31003 8751  5% 38 10733267 181195 96%
c [ 128.14 1234 6361 7  65 31003 8751 18% 62 10733267 181195 96%
c - 133.47 1234 5647 8  65 32219 6221 16% 60 10733267 181195 96%
c ^ 161.77 1234 4356 8  67 35377 8736 13% 56 10733267 181195 96%
c B 161.95 1234 4160 8  68 36015 9052 13% 55 10733267 181195 96%
c - 168.12 1235 3294 9  71 40402 8117 12% 59 10733267 181195 96%
c W 174.88 1235 2646 9  72 45018 11727 11% 60 10733267 181195 96%
c - 181.87 1237 4834 10  73 49497 9717 16% 70 10733267 181195 96%
c O 195.77 1237 4314 10  74 55020 14151 18% 77 10733267 181195 96%
c - 201.41 1236 3729 11  78 59498 9864 16% 73 10733267 181195 96%
c ] 201.95 1236 3360 11  80 63004 12305 15% 69 10733267 181195 96%
c { 201.95 1236 52 11  80 63004 12305  5% 38 10733267 181195 96%
c 
c  seconds     reductions     redundant    irredundant
c           MB      restarts         trail          variables
c             level     conflicts        glue             remaining
c 
c B 202.35 1236 57 11  80 66022 14473  5% 38 10733267 181195 96%
c - 208.31 1235 125 12  99 70412 9896  5% 38 10733267 181195 96%
c s 208.85 1235 127 12  99 70708 9255  5% 38 10733267 181195 96%
c s 231.34 1235 127 12  99 70708 8269  5% 38 10733267 181195 96%
c ^ 234.41 1235 127 12  99 70708 8269  5% 38 10733267 181195 96%
c W 254.43 1235 166 12 122 78023 12596  5% 38 10733267 181195 96%
c - 260.16 1235 163 13 152 82231 9938  5% 38 10733267 181195 96%
c # 261.81 1235 156 13 179 91024 14992  5% 39 10733267 181195 96%
c - 267.61 1235 149 14 179 94961 11081  5% 38 10733267 181195 96%
c B 281.72 1235 128 14 181 105026 18354  4% 38 10733267 181195 96%
c - 287.37 1235 124 15 211 108599 12286  5% 38 10733267 181195 96%
c s 289.13 1235 110 15 322 117817 16595  4% 38 10733267 181195 96%
c w 301.51 1235 110 15 322 117817 16594  4% 38 10733267 181195 96%
c s 311.02 1235 110 15 322 117817 16114  4% 38 10733267 181195 96%
c ^ 313.06 1235 110 15 322 117817 16114  4% 38 10733267 181195 96%
c W 318.39 1235 107 15 322 120028 17563  4% 38 10733267 181195 96%
c - 322.37 1235 104 16 360 123147 12581  4% 38 10733267 181195 96%
c } 322.71 1235 100 16 394 127004 14642  4% 38 10733267 181195 96%
c [ 322.71 1235 3360 16 394 127004 14642 15% 69 10733267 181195 96%
c B 323.49 1235 2858 16 399 136029 21365 14% 66 10733267 181195 96%
c 
c  seconds       reductions      redundant    irredundant
c           MB        restarts          trail          variables
c              level      conflicts         glue             remaining
c 
c - 327.60 1237 2991 17 400 138604 14452 16% 67 10733267 181195 96%
c W 344.77 1237 2710 17 403 153030 26120 22% 75 10733267 181195 96%
c - 348.43 1240 2659 18 403 154970 17009 22% 75 10733267 181195 96%
c I 350.33 1240 2364 18 406 171031 29280 26% 76 10733267 181195 96%
c - 354.01 1239 2658 19 407 172246 17887 26% 78 10733267 181195 96%
c s 355.08 1239 2618 19 410 176706 21122 24% 80 10733267 181195 96%
c w 363.24 1239 2618 19 410 176706 21122 24% 80 10733267 181195 96%
c s 371.35 1239 2618 19 410 176706 21064 24% 80 10733267 181195 96%
c ^ 373.41 1239 2618 19 410 176706 21064 24% 80 10733267 181195 96%
c B 385.04 1239 3144 19 417 190033 31069 23% 87 10733267 181195 96%
c - 388.53 1241 3219 20 417 190431 18803 23% 86 10733267 181195 96%
c - 393.28 1238 2854 21 425 209524 18847 19% 79 10733267 181195 96%
c W 399.70 1238 2834 21 425 210035 19156 19% 79 10733267 181195 96%
c - 413.10 1237 2192 22 433 229529 17730 15% 72 10733267 181195 96%
c O 413.21 1237 2150 22 433 231036 18809 15% 71 10733267 181195 96%
c s 414.86 1237 1757 22 434 247367 30387 13% 66 10733267 181195 96%
c s 431.61 1237 1757 22 434 247367 30094 13% 66 10733267 181195 96%
c - 437.62 1237 1693 23 435 250442 19464 12% 65 10733267 181195 96%
c B 437.82 1237 1642 23 435 253039 21135 12% 64 10733267 181195 96%
c ] 437.97 1237 1610 23 435 255004 22696 12% 64 10733267 181195 96%
c 
c  seconds      reductions      redundant    irredundant
c           MB       restarts          trail          variables
c              level     conflicts         glue             remaining
c 
c { 437.97 1237 100 23 435 255004 22696  4% 38 10733267 181195 96%
c - 443.18 1237 86 24 498 272263 19458  4% 39 10733267 181195 96%
c F 451.98 1237 84 24 502 276041 21671  4% 39 10733267 181195 96%
c - 457.04 1237 73 25 551 294994 20469  5% 38 10733267 181195 96%
c B 457.52 1237 71 25 555 300045 23825  5% 38 10733267 181195 96%
c - 463.07 1237 65 26 670 318633 20681  5% 38 10733267 181195 96%
c W 472.39 1237 63 26 697 325047 24832  5% 39 10733267 181195 96%
c - 486.27 1237 67 27 715 343183 21278  5% 38 10733267 181195 96%
c # 487.15 1237 68 27 791 351049 26107  5% 39 10733267 181195 96%
c - 492.59 1237 63 28 911 368643 22517  5% 39 10733267 181195 96%
c B 493.65 1237 61 28 914 378050 28985  5% 39 10733267 181195 96%
c - 507.75 1237 59 29 1077 395011 22751  5% 39 10733267 181195 96%
c W 519.59 1237 57 29 1154 406052 29623  5% 39 10733267 181195 96%
c - 524.80 1237 54 30 1197 422291 23133  5% 39 10733267 181195 96%
c F 526.22 1237 53 30 1203 435053 31489  5% 39 10733267 181195 96%
c - 531.20 1238 51 31 1255 450476 25699  4% 39 10733267 181195 96%
c B 541.12 1238 50 31 1274 465055 35503  4% 39 10733267 181195 96%
c - 546.09 1238 50 32 1367 479571 25789  4% 39 10733267 181195 96%
c W 560.20 1238 48 32 1393 496058 36273  4% 39 10733267 181195 96%
c - 564.92 1238 48 33 1404 509575 26218  4% 39 10733267 181195 96%
c 
c  seconds     reductions       redundant    irredundant
c           MB      restarts           trail          variables
c             level      conflicts         glue             remaining
c 
c } 565.09 1238 48 33 1404 511005 27286  4% 39 10733267 181195 96%
c [ 565.09 1238 1610 33 1404 511005 27286 12% 64 10733267 181195 96%
c W 587.55 1238 1329 33 1404 528060 38803 11% 61 10733267 181195 96%
c - 591.78 1239 1157 34 1406 540488 27994 10% 59 10733267 181195 96%
c I 595.26 1239 2479 34 1418 561061 43304 13% 66 10733267 181195 96%
c - 602.77 1251 3105 35 1419 572310 32723 15% 85 10733267 181195 96%
c ] 602.77 1251 3105 35 1419 572312 32725 15% 85 10733267 181195 96%
c ? 602.77 1251 3105 35 1419 572312 32725 15% 85 10733267 181195 96%
c 
c --- [ result ] -------------------------------------------------------------
c 
c UNKNOWN
c 
c --- [ run-time profiling ] -------------------------------------------------
c 
c process time taken by individual solving procedures
c (percentage relative to process time for solving)
c 
c       334.23   56.16% search
c       260.90   43.84% simplify
c       128.49   21.59% unstable
c       125.37   21.07% stable
c        80.31   13.49% walk
c        68.13   11.45% ternary
c        55.79    9.37% elim
c        48.41    8.13% vivify
c        12.65    2.13% subsume
c        10.75    1.81% probe
c         7.64    1.28% parse
c         0.06    0.01% lucky
c   =================================
c       595.13   98.73% solve
c 
c last line shows process time for solving
c (percentage relative to total process time)
c 
c --- [ statistics ] ---------------------------------------------------------
c 
c chronological:            101787        17.79 %  of conflicts
c conflicts:                572312       961.65    per second
c decisions:               1804346      3031.83    per second
c eliminated:                 6405         3.39 %  of all variables
c fixed:                      1600         0.85 %  of all variables
c learned:                  566995        99.07 %  per conflict
c learned_lits:           71587440       100.00 %  learned literals
c minimized:                     0         0.00 %  learned literals
c shrunken:               35449180        49.52 %  learned literals
c minishrunken:            1044614         1.46 %  learned literals
c propagations:          201608697         0.34 M  per second
c reduced:                  350161        61.18 %  per conflict
c rephased:                     33     17342.79    interval
c restarts:                   1419       403.32    interval
c stabilizing:                   5        40.42 %  of conflicts
c subsumed:                 181149         0.75 %  of all clauses
c strengthened:               9066         0.04 %  of all clauses
c vivified:                     23         0.00 %  of all clauses
c walked:                       10     57231.20    interval
c weakened:                 701125         2.99    average size
c 
c seconds are measured in process time for solving
c 
c --- [ resources ] ----------------------------------------------------------
c 
c total process time since initialization:       602.77    seconds
c total real time since initialization:          602.91    seconds
c maximum resident set size of process:         1596.95    MB
c 
c --- [ shutting down ] ------------------------------------------------------
c 
c exit 0
